Minimize
	value: tt

Subject to
s_1_12 = 1
tt + 1000 s_1_1 > 0.0
tt - t_1_1 - 1000.000000 s_1_1  > -995.291500
tt + 1000 s_2_1 > 0.0
tt - t_2_1 - 1000.000000 s_2_1  > -997.578200
tt + 1000 s_1_2 > 0.0
tt - t_1_2 - 1000.000000 s_1_2  > -997.272900
tt + 1000 s_2_2 > 0.0
tt - t_2_2 - 1000.000000 s_2_2  > -998.479300
tt + 1000 s_1_3 > 0.0
tt - t_1_3 - 1000.000000 s_1_3  > -996.188300
tt + 1000 s_2_3 > 0.0
tt - t_2_3 - 1000.000000 s_2_3  > -997.578000
tt + 1000 s_1_4 > 0.0
tt - t_1_4 - 1000.000000 s_1_4  > -994.949500
tt + 1000 s_2_4 > 0.0
tt - t_2_4 - 1000.000000 s_2_4  > -997.313900
tt + 1000 s_1_5 > 0.0
tt - t_1_5 - 1000.000000 s_1_5  > -997.235000
tt + 1000 s_2_5 > 0.0
tt - t_2_5 - 1000.000000 s_2_5  > -998.506400
tt + 1000 s_1_6 > 0.0
tt - t_1_6 - 1000.000000 s_1_6  > -996.772000
tt + 1000 s_2_6 > 0.0
tt - t_2_6 - 1000.000000 s_2_6  > -998.283000
tt + 1000 s_1_7 > 0.0
tt - t_1_7 - 1000.000000 s_1_7  > -996.224700
tt + 1000 s_2_7 > 0.0
tt - t_2_7 - 1000.000000 s_2_7  > -997.545600
tt + 1000 s_1_8 > 0.0
tt - t_1_8 - 1000.000000 s_1_8  > -995.511700
tt + 1000 s_2_8 > 0.0
tt - t_2_8 - 1000.000000 s_2_8  > -997.294900
tt + 1000 s_1_9 > 0.0
tt - t_1_9 - 1000.000000 s_1_9  > -994.970500
tt + 1000 s_2_9 > 0.0
tt - t_2_9 - 1000.000000 s_2_9  > -997.239400
tt + 1000 s_1_10 > 0.0
tt - t_1_10 - 1000.000000 s_1_10  > -999.462400
tt + 1000 s_2_10 > 0.0
tt - t_2_10 - 1000.000000 s_2_10  > -998.786000
tt + 1000 s_1_11 > 0.0
tt - t_1_11 - 1000.000000 s_1_11  > -997.946000
tt + 1000 s_2_11 > 0.0
tt - t_2_11 - 1000.000000 s_2_11  > -998.785200
tt + 1000 s_1_12 > 0.0
tt - t_1_12 - 1000.000000 s_1_12  > -999.812333
tt + 1000 s_2_12 > 0.0
tt - t_2_12 - 1000.000000 s_2_12  > -998.761700
s_1_1 + s_2_1 = 1
s_1_2 + s_2_2 = 1
s_1_3 + s_2_3 = 1
s_1_4 + s_2_4 = 1
s_1_5 + s_2_5 = 1
s_1_6 + s_2_6 = 1
s_1_7 + s_2_7 = 1
s_1_8 + s_2_8 = 1
s_1_9 + s_2_9 = 1
s_1_10 + s_2_10 = 1
s_1_11 + s_2_11 = 1
s_1_12 + s_2_12 = 1
s_1_1 + s_1_2 + 1000 r_1_1_2 >= 2
- s_1_1 - s_1_2 - 1000 r_1_1_2 >= -1001
t_1_1 - t_1_2 - 1000.000000 u_1_1_2 - 0.000000 s_1_2  + 2000.000000 r_1_1_2 > -997.272900
s_2_1 + s_2_2 + 1000 r_2_1_2 >= 2
- s_2_1 - s_2_2 - 1000 r_2_1_2 >= -1001
t_2_1 - t_2_2 - 1000.000000 u_2_1_2 - 0.000000 s_2_2  + 2000.000000 r_2_1_2 > -998.479300
s_1_1 + s_1_3 + 1000 r_1_1_3 >= 2
- s_1_1 - s_1_3 - 1000 r_1_1_3 >= -1001
t_1_1 - t_1_3 - 1000.000000 u_1_1_3 - 0.000000 s_1_3  + 2000.000000 r_1_1_3 > -996.188300
s_2_1 + s_2_3 + 1000 r_2_1_3 >= 2
- s_2_1 - s_2_3 - 1000 r_2_1_3 >= -1001
t_2_1 - t_2_3 - 1000.000000 u_2_1_3 - 0.000000 s_2_3  + 2000.000000 r_2_1_3 > -997.578000
s_1_1 + s_1_4 + 1000 r_1_1_4 >= 2
- s_1_1 - s_1_4 - 1000 r_1_1_4 >= -1001
t_1_1 - t_1_4 - 1000.000000 u_1_1_4 - 0.000000 s_1_4  + 2000.000000 r_1_1_4 > -994.949500
s_2_1 + s_2_4 + 1000 r_2_1_4 >= 2
- s_2_1 - s_2_4 - 1000 r_2_1_4 >= -1001
t_2_1 - t_2_4 - 1000.000000 u_2_1_4 - 0.000000 s_2_4  + 2000.000000 r_2_1_4 > -997.313900
s_1_1 + s_1_5 + 1000 r_1_1_5 >= 2
- s_1_1 - s_1_5 - 1000 r_1_1_5 >= -1001
t_1_1 - t_1_5 - 1000.000000 u_1_1_5 - 0.000000 s_1_5  + 2000.000000 r_1_1_5 > -997.235000
s_2_1 + s_2_5 + 1000 r_2_1_5 >= 2
- s_2_1 - s_2_5 - 1000 r_2_1_5 >= -1001
t_2_1 - t_2_5 - 1000.000000 u_2_1_5 - 0.000000 s_2_5  + 2000.000000 r_2_1_5 > -998.506400
s_1_1 + s_1_6 + 1000 r_1_1_6 >= 2
- s_1_1 - s_1_6 - 1000 r_1_1_6 >= -1001
t_1_1 - t_1_6 - 1000.000000 u_1_1_6 - 0.000000 s_1_6  + 2000.000000 r_1_1_6 > -996.772000
s_2_1 + s_2_6 + 1000 r_2_1_6 >= 2
- s_2_1 - s_2_6 - 1000 r_2_1_6 >= -1001
t_2_1 - t_2_6 - 1000.000000 u_2_1_6 - 0.000000 s_2_6  + 2000.000000 r_2_1_6 > -998.283000
s_1_1 + s_1_7 + 1000 r_1_1_7 >= 2
- s_1_1 - s_1_7 - 1000 r_1_1_7 >= -1001
t_1_1 - t_1_7 - 1000.000000 u_1_1_7 - 0.000000 s_1_7  + 2000.000000 r_1_1_7 > -996.224700
s_2_1 + s_2_7 + 1000 r_2_1_7 >= 2
- s_2_1 - s_2_7 - 1000 r_2_1_7 >= -1001
t_2_1 - t_2_7 - 1000.000000 u_2_1_7 - 0.000000 s_2_7  + 2000.000000 r_2_1_7 > -997.545600
s_1_1 + s_1_8 + 1000 r_1_1_8 >= 2
- s_1_1 - s_1_8 - 1000 r_1_1_8 >= -1001
t_1_1 - t_1_8 - 1000.000000 u_1_1_8 - 0.000000 s_1_8  + 2000.000000 r_1_1_8 > -995.511700
s_2_1 + s_2_8 + 1000 r_2_1_8 >= 2
- s_2_1 - s_2_8 - 1000 r_2_1_8 >= -1001
t_2_1 - t_2_8 - 1000.000000 u_2_1_8 - 0.000000 s_2_8  + 2000.000000 r_2_1_8 > -997.294900
s_1_1 + s_1_9 + 1000 r_1_1_9 >= 2
- s_1_1 - s_1_9 - 1000 r_1_1_9 >= -1001
t_1_1 - t_1_9 - 1000.000000 u_1_1_9 - 0.000000 s_1_9  + 2000.000000 r_1_1_9 > -994.970500
s_2_1 + s_2_9 + 1000 r_2_1_9 >= 2
- s_2_1 - s_2_9 - 1000 r_2_1_9 >= -1001
t_2_1 - t_2_9 - 1000.000000 u_2_1_9 - 0.000000 s_2_9  + 2000.000000 r_2_1_9 > -997.239400
s_1_1 + s_1_10 + 1000 r_1_1_10 >= 2
- s_1_1 - s_1_10 - 1000 r_1_1_10 >= -1001
t_1_1 - t_1_10 - 1000.000000 u_1_1_10 - 0.000000 s_1_10  + 2000.000000 r_1_1_10 > -999.462400
s_2_1 + s_2_10 + 1000 r_2_1_10 >= 2
- s_2_1 - s_2_10 - 1000 r_2_1_10 >= -1001
t_2_1 - t_2_10 - 1000.000000 u_2_1_10 - 0.000000 s_2_10  + 2000.000000 r_2_1_10 > -998.786000
s_1_1 + s_1_11 + 1000 r_1_1_11 >= 2
- s_1_1 - s_1_11 - 1000 r_1_1_11 >= -1001
t_1_1 - t_1_11 - 1000.000000 u_1_1_11 - 0.000000 s_1_11  + 2000.000000 r_1_1_11 > -997.946000
s_2_1 + s_2_11 + 1000 r_2_1_11 >= 2
- s_2_1 - s_2_11 - 1000 r_2_1_11 >= -1001
t_2_1 - t_2_11 - 1000.000000 u_2_1_11 - 0.000000 s_2_11  + 2000.000000 r_2_1_11 > -998.785200
t_1_12 - t_1_1 - 1000.000000 s_1_1  > -995.291500
t_1_12 - t_2_1 - 1000.000000 s_2_1  > -997.578200
t_2_12 - t_1_1 - 1000.000000 s_1_1  > -995.291500
t_2_12 - t_2_1 - 1000.000000 s_2_1  > -997.578200
s_1_2 + s_1_1 + 1000 r_1_1_2 >= 2
- s_1_2 - s_1_1 - 1000 r_1_1_2 >= -1001
t_1_2 - t_1_1 + 1000.000000 u_1_1_2 - 0.000000 s_1_1  + 2000.000000 r_1_1_2 > 4.708500
s_2_2 + s_2_1 + 1000 r_2_1_2 >= 2
- s_2_2 - s_2_1 - 1000 r_2_1_2 >= -1001
t_2_2 - t_2_1 + 1000.000000 u_2_1_2 - 0.000000 s_2_1  + 2000.000000 r_2_1_2 > 2.421800
t_1_3 - t_1_2 - 1000.000000 s_1_2  > -997.272900
t_1_3 - t_2_2 - 1000.000000 s_2_2  > -998.479300
t_2_3 - t_1_2 - 1000.000000 s_1_2  > -997.272900
t_2_3 - t_2_2 - 1000.000000 s_2_2  > -998.479300
s_1_2 + s_1_5 + 1000 r_1_2_5 >= 2
- s_1_2 - s_1_5 - 1000 r_1_2_5 >= -1001
t_1_2 - t_1_5 - 1000.000000 u_1_2_5 - 0.000000 s_1_5  + 2000.000000 r_1_2_5 > -997.235000
s_2_2 + s_2_5 + 1000 r_2_2_5 >= 2
- s_2_2 - s_2_5 - 1000 r_2_2_5 >= -1001
t_2_2 - t_2_5 - 1000.000000 u_2_2_5 - 0.000000 s_2_5  + 2000.000000 r_2_2_5 > -998.506400
s_1_2 + s_1_6 + 1000 r_1_2_6 >= 2
- s_1_2 - s_1_6 - 1000 r_1_2_6 >= -1001
t_1_2 - t_1_6 - 1000.000000 u_1_2_6 - 0.000000 s_1_6  + 2000.000000 r_1_2_6 > -996.772000
s_2_2 + s_2_6 + 1000 r_2_2_6 >= 2
- s_2_2 - s_2_6 - 1000 r_2_2_6 >= -1001
t_2_2 - t_2_6 - 1000.000000 u_2_2_6 - 0.000000 s_2_6  + 2000.000000 r_2_2_6 > -998.283000
s_1_2 + s_1_7 + 1000 r_1_2_7 >= 2
- s_1_2 - s_1_7 - 1000 r_1_2_7 >= -1001
t_1_2 - t_1_7 - 1000.000000 u_1_2_7 - 0.000000 s_1_7  + 2000.000000 r_1_2_7 > -996.224700
s_2_2 + s_2_7 + 1000 r_2_2_7 >= 2
- s_2_2 - s_2_7 - 1000 r_2_2_7 >= -1001
t_2_2 - t_2_7 - 1000.000000 u_2_2_7 - 0.000000 s_2_7  + 2000.000000 r_2_2_7 > -997.545600
s_1_2 + s_1_8 + 1000 r_1_2_8 >= 2
- s_1_2 - s_1_8 - 1000 r_1_2_8 >= -1001
t_1_2 - t_1_8 - 1000.000000 u_1_2_8 - 0.000000 s_1_8  + 2000.000000 r_1_2_8 > -995.511700
s_2_2 + s_2_8 + 1000 r_2_2_8 >= 2
- s_2_2 - s_2_8 - 1000 r_2_2_8 >= -1001
t_2_2 - t_2_8 - 1000.000000 u_2_2_8 - 0.000000 s_2_8  + 2000.000000 r_2_2_8 > -997.294900
s_1_2 + s_1_9 + 1000 r_1_2_9 >= 2
- s_1_2 - s_1_9 - 1000 r_1_2_9 >= -1001
t_1_2 - t_1_9 - 1000.000000 u_1_2_9 - 0.000000 s_1_9  + 2000.000000 r_1_2_9 > -994.970500
s_2_2 + s_2_9 + 1000 r_2_2_9 >= 2
- s_2_2 - s_2_9 - 1000 r_2_2_9 >= -1001
t_2_2 - t_2_9 - 1000.000000 u_2_2_9 - 0.000000 s_2_9  + 2000.000000 r_2_2_9 > -997.239400
s_1_2 + s_1_10 + 1000 r_1_2_10 >= 2
- s_1_2 - s_1_10 - 1000 r_1_2_10 >= -1001
t_1_2 - t_1_10 - 1000.000000 u_1_2_10 - 0.000000 s_1_10  + 2000.000000 r_1_2_10 > -999.462400
s_2_2 + s_2_10 + 1000 r_2_2_10 >= 2
- s_2_2 - s_2_10 - 1000 r_2_2_10 >= -1001
t_2_2 - t_2_10 - 1000.000000 u_2_2_10 - 0.000000 s_2_10  + 2000.000000 r_2_2_10 > -998.786000
s_1_2 + s_1_11 + 1000 r_1_2_11 >= 2
- s_1_2 - s_1_11 - 1000 r_1_2_11 >= -1001
t_1_2 - t_1_11 - 1000.000000 u_1_2_11 - 0.000000 s_1_11  + 2000.000000 r_1_2_11 > -997.946000
s_2_2 + s_2_11 + 1000 r_2_2_11 >= 2
- s_2_2 - s_2_11 - 1000 r_2_2_11 >= -1001
t_2_2 - t_2_11 - 1000.000000 u_2_2_11 - 0.000000 s_2_11  + 2000.000000 r_2_2_11 > -998.785200
s_1_3 + s_1_1 + 1000 r_1_1_3 >= 2
- s_1_3 - s_1_1 - 1000 r_1_1_3 >= -1001
t_1_3 - t_1_1 + 1000.000000 u_1_1_3 - 0.000000 s_1_1  + 2000.000000 r_1_1_3 > 4.708500
s_2_3 + s_2_1 + 1000 r_2_1_3 >= 2
- s_2_3 - s_2_1 - 1000 r_2_1_3 >= -1001
t_2_3 - t_2_1 + 1000.000000 u_2_1_3 - 0.000000 s_2_1  + 2000.000000 r_2_1_3 > 2.421800
t_1_4 - t_1_3 - 1000.000000 s_1_3  > -996.188300
t_1_4 - t_2_3 - 1000.000000 s_2_3  > -997.578000
t_2_4 - t_1_3 - 1000.000000 s_1_3  > -996.188300
t_2_4 - t_2_3 - 1000.000000 s_2_3  > -997.578000
s_1_3 + s_1_5 + 1000 r_1_3_5 >= 2
- s_1_3 - s_1_5 - 1000 r_1_3_5 >= -1001
t_1_3 - t_1_5 - 1000.000000 u_1_3_5 - 0.000000 s_1_5  + 2000.000000 r_1_3_5 > -997.235000
s_2_3 + s_2_5 + 1000 r_2_3_5 >= 2
- s_2_3 - s_2_5 - 1000 r_2_3_5 >= -1001
t_2_3 - t_2_5 - 1000.000000 u_2_3_5 - 0.000000 s_2_5  + 2000.000000 r_2_3_5 > -998.506400
s_1_3 + s_1_6 + 1000 r_1_3_6 >= 2
- s_1_3 - s_1_6 - 1000 r_1_3_6 >= -1001
t_1_3 - t_1_6 - 1000.000000 u_1_3_6 - 0.000000 s_1_6  + 2000.000000 r_1_3_6 > -996.772000
s_2_3 + s_2_6 + 1000 r_2_3_6 >= 2
- s_2_3 - s_2_6 - 1000 r_2_3_6 >= -1001
t_2_3 - t_2_6 - 1000.000000 u_2_3_6 - 0.000000 s_2_6  + 2000.000000 r_2_3_6 > -998.283000
s_1_3 + s_1_7 + 1000 r_1_3_7 >= 2
- s_1_3 - s_1_7 - 1000 r_1_3_7 >= -1001
t_1_3 - t_1_7 - 1000.000000 u_1_3_7 - 0.000000 s_1_7  + 2000.000000 r_1_3_7 > -996.224700
s_2_3 + s_2_7 + 1000 r_2_3_7 >= 2
- s_2_3 - s_2_7 - 1000 r_2_3_7 >= -1001
t_2_3 - t_2_7 - 1000.000000 u_2_3_7 - 0.000000 s_2_7  + 2000.000000 r_2_3_7 > -997.545600
s_1_3 + s_1_8 + 1000 r_1_3_8 >= 2
- s_1_3 - s_1_8 - 1000 r_1_3_8 >= -1001
t_1_3 - t_1_8 - 1000.000000 u_1_3_8 - 0.000000 s_1_8  + 2000.000000 r_1_3_8 > -995.511700
s_2_3 + s_2_8 + 1000 r_2_3_8 >= 2
- s_2_3 - s_2_8 - 1000 r_2_3_8 >= -1001
t_2_3 - t_2_8 - 1000.000000 u_2_3_8 - 0.000000 s_2_8  + 2000.000000 r_2_3_8 > -997.294900
s_1_3 + s_1_9 + 1000 r_1_3_9 >= 2
- s_1_3 - s_1_9 - 1000 r_1_3_9 >= -1001
t_1_3 - t_1_9 - 1000.000000 u_1_3_9 - 0.000000 s_1_9  + 2000.000000 r_1_3_9 > -994.970500
s_2_3 + s_2_9 + 1000 r_2_3_9 >= 2
- s_2_3 - s_2_9 - 1000 r_2_3_9 >= -1001
t_2_3 - t_2_9 - 1000.000000 u_2_3_9 - 0.000000 s_2_9  + 2000.000000 r_2_3_9 > -997.239400
s_1_3 + s_1_10 + 1000 r_1_3_10 >= 2
- s_1_3 - s_1_10 - 1000 r_1_3_10 >= -1001
t_1_3 - t_1_10 - 1000.000000 u_1_3_10 - 0.000000 s_1_10  + 2000.000000 r_1_3_10 > -999.462400
s_2_3 + s_2_10 + 1000 r_2_3_10 >= 2
- s_2_3 - s_2_10 - 1000 r_2_3_10 >= -1001
t_2_3 - t_2_10 - 1000.000000 u_2_3_10 - 0.000000 s_2_10  + 2000.000000 r_2_3_10 > -998.786000
s_1_3 + s_1_11 + 1000 r_1_3_11 >= 2
- s_1_3 - s_1_11 - 1000 r_1_3_11 >= -1001
t_1_3 - t_1_11 - 1000.000000 u_1_3_11 - 0.000000 s_1_11  + 2000.000000 r_1_3_11 > -997.946000
s_2_3 + s_2_11 + 1000 r_2_3_11 >= 2
- s_2_3 - s_2_11 - 1000 r_2_3_11 >= -1001
t_2_3 - t_2_11 - 1000.000000 u_2_3_11 - 0.000000 s_2_11  + 2000.000000 r_2_3_11 > -998.785200
s_1_4 + s_1_1 + 1000 r_1_1_4 >= 2
- s_1_4 - s_1_1 - 1000 r_1_1_4 >= -1001
t_1_4 - t_1_1 + 1000.000000 u_1_1_4 - 0.000000 s_1_1  + 2000.000000 r_1_1_4 > 4.708500
s_2_4 + s_2_1 + 1000 r_2_1_4 >= 2
- s_2_4 - s_2_1 - 1000 r_2_1_4 >= -1001
t_2_4 - t_2_1 + 1000.000000 u_2_1_4 - 0.000000 s_2_1  + 2000.000000 r_2_1_4 > 2.421800
s_1_4 + s_1_5 + 1000 r_1_4_5 >= 2
- s_1_4 - s_1_5 - 1000 r_1_4_5 >= -1001
t_1_4 - t_1_5 - 1000.000000 u_1_4_5 - 0.000000 s_1_5  + 2000.000000 r_1_4_5 > -997.235000
s_2_4 + s_2_5 + 1000 r_2_4_5 >= 2
- s_2_4 - s_2_5 - 1000 r_2_4_5 >= -1001
t_2_4 - t_2_5 - 1000.000000 u_2_4_5 - 0.000000 s_2_5  + 2000.000000 r_2_4_5 > -998.506400
s_1_4 + s_1_6 + 1000 r_1_4_6 >= 2
- s_1_4 - s_1_6 - 1000 r_1_4_6 >= -1001
t_1_4 - t_1_6 - 1000.000000 u_1_4_6 - 0.000000 s_1_6  + 2000.000000 r_1_4_6 > -996.772000
s_2_4 + s_2_6 + 1000 r_2_4_6 >= 2
- s_2_4 - s_2_6 - 1000 r_2_4_6 >= -1001
t_2_4 - t_2_6 - 1000.000000 u_2_4_6 - 0.000000 s_2_6  + 2000.000000 r_2_4_6 > -998.283000
s_1_4 + s_1_7 + 1000 r_1_4_7 >= 2
- s_1_4 - s_1_7 - 1000 r_1_4_7 >= -1001
t_1_4 - t_1_7 - 1000.000000 u_1_4_7 - 0.000000 s_1_7  + 2000.000000 r_1_4_7 > -996.224700
s_2_4 + s_2_7 + 1000 r_2_4_7 >= 2
- s_2_4 - s_2_7 - 1000 r_2_4_7 >= -1001
t_2_4 - t_2_7 - 1000.000000 u_2_4_7 - 0.000000 s_2_7  + 2000.000000 r_2_4_7 > -997.545600
s_1_4 + s_1_8 + 1000 r_1_4_8 >= 2
- s_1_4 - s_1_8 - 1000 r_1_4_8 >= -1001
t_1_4 - t_1_8 - 1000.000000 u_1_4_8 - 0.000000 s_1_8  + 2000.000000 r_1_4_8 > -995.511700
s_2_4 + s_2_8 + 1000 r_2_4_8 >= 2
- s_2_4 - s_2_8 - 1000 r_2_4_8 >= -1001
t_2_4 - t_2_8 - 1000.000000 u_2_4_8 - 0.000000 s_2_8  + 2000.000000 r_2_4_8 > -997.294900
s_1_4 + s_1_9 + 1000 r_1_4_9 >= 2
- s_1_4 - s_1_9 - 1000 r_1_4_9 >= -1001
t_1_4 - t_1_9 - 1000.000000 u_1_4_9 - 0.000000 s_1_9  + 2000.000000 r_1_4_9 > -994.970500
s_2_4 + s_2_9 + 1000 r_2_4_9 >= 2
- s_2_4 - s_2_9 - 1000 r_2_4_9 >= -1001
t_2_4 - t_2_9 - 1000.000000 u_2_4_9 - 0.000000 s_2_9  + 2000.000000 r_2_4_9 > -997.239400
s_1_4 + s_1_10 + 1000 r_1_4_10 >= 2
- s_1_4 - s_1_10 - 1000 r_1_4_10 >= -1001
t_1_4 - t_1_10 - 1000.000000 u_1_4_10 - 0.000000 s_1_10  + 2000.000000 r_1_4_10 > -999.462400
s_2_4 + s_2_10 + 1000 r_2_4_10 >= 2
- s_2_4 - s_2_10 - 1000 r_2_4_10 >= -1001
t_2_4 - t_2_10 - 1000.000000 u_2_4_10 - 0.000000 s_2_10  + 2000.000000 r_2_4_10 > -998.786000
s_1_4 + s_1_11 + 1000 r_1_4_11 >= 2
- s_1_4 - s_1_11 - 1000 r_1_4_11 >= -1001
t_1_4 - t_1_11 - 1000.000000 u_1_4_11 - 0.000000 s_1_11  + 2000.000000 r_1_4_11 > -997.946000
s_2_4 + s_2_11 + 1000 r_2_4_11 >= 2
- s_2_4 - s_2_11 - 1000 r_2_4_11 >= -1001
t_2_4 - t_2_11 - 1000.000000 u_2_4_11 - 0.000000 s_2_11  + 2000.000000 r_2_4_11 > -998.785200
t_1_12 - t_1_4 - 1000.000000 s_1_4  > -994.949500
t_1_12 - t_2_4 - 1000.000000 s_2_4  > -997.313900
t_2_12 - t_1_4 - 1000.000000 s_1_4  > -994.949500
t_2_12 - t_2_4 - 1000.000000 s_2_4  > -997.313900
s_1_5 + s_1_1 + 1000 r_1_1_5 >= 2
- s_1_5 - s_1_1 - 1000 r_1_1_5 >= -1001
t_1_5 - t_1_1 + 1000.000000 u_1_1_5 - 0.000000 s_1_1  + 2000.000000 r_1_1_5 > 4.708500
s_2_5 + s_2_1 + 1000 r_2_1_5 >= 2
- s_2_5 - s_2_1 - 1000 r_2_1_5 >= -1001
t_2_5 - t_2_1 + 1000.000000 u_2_1_5 - 0.000000 s_2_1  + 2000.000000 r_2_1_5 > 2.421800
s_1_5 + s_1_2 + 1000 r_1_2_5 >= 2
- s_1_5 - s_1_2 - 1000 r_1_2_5 >= -1001
t_1_5 - t_1_2 + 1000.000000 u_1_2_5 - 0.000000 s_1_2  + 2000.000000 r_1_2_5 > 2.727100
s_2_5 + s_2_2 + 1000 r_2_2_5 >= 2
- s_2_5 - s_2_2 - 1000 r_2_2_5 >= -1001
t_2_5 - t_2_2 + 1000.000000 u_2_2_5 - 0.000000 s_2_2  + 2000.000000 r_2_2_5 > 1.520700
s_1_5 + s_1_3 + 1000 r_1_3_5 >= 2
- s_1_5 - s_1_3 - 1000 r_1_3_5 >= -1001
t_1_5 - t_1_3 + 1000.000000 u_1_3_5 - 0.000000 s_1_3  + 2000.000000 r_1_3_5 > 3.811700
s_2_5 + s_2_3 + 1000 r_2_3_5 >= 2
- s_2_5 - s_2_3 - 1000 r_2_3_5 >= -1001
t_2_5 - t_2_3 + 1000.000000 u_2_3_5 - 0.000000 s_2_3  + 2000.000000 r_2_3_5 > 2.422000
s_1_5 + s_1_4 + 1000 r_1_4_5 >= 2
- s_1_5 - s_1_4 - 1000 r_1_4_5 >= -1001
t_1_5 - t_1_4 + 1000.000000 u_1_4_5 - 0.000000 s_1_4  + 2000.000000 r_1_4_5 > 5.050500
s_2_5 + s_2_4 + 1000 r_2_4_5 >= 2
- s_2_5 - s_2_4 - 1000 r_2_4_5 >= -1001
t_2_5 - t_2_4 + 1000.000000 u_2_4_5 - 0.000000 s_2_4  + 2000.000000 r_2_4_5 > 2.686100
t_1_6 - t_1_5 - 1000.000000 s_1_5  > -997.235000
t_1_6 - t_2_5 - 1000.000000 s_2_5  > -998.506400
t_2_6 - t_1_5 - 1000.000000 s_1_5  > -997.235000
t_2_6 - t_2_5 - 1000.000000 s_2_5  > -998.506400
s_1_5 + s_1_10 + 1000 r_1_5_10 >= 2
- s_1_5 - s_1_10 - 1000 r_1_5_10 >= -1001
t_1_5 - t_1_10 - 1000.000000 u_1_5_10 - 0.000000 s_1_10  + 2000.000000 r_1_5_10 > -999.462400
s_2_5 + s_2_10 + 1000 r_2_5_10 >= 2
- s_2_5 - s_2_10 - 1000 r_2_5_10 >= -1001
t_2_5 - t_2_10 - 1000.000000 u_2_5_10 - 0.000000 s_2_10  + 2000.000000 r_2_5_10 > -998.786000
s_1_5 + s_1_11 + 1000 r_1_5_11 >= 2
- s_1_5 - s_1_11 - 1000 r_1_5_11 >= -1001
t_1_5 - t_1_11 - 1000.000000 u_1_5_11 - 0.000000 s_1_11  + 2000.000000 r_1_5_11 > -997.946000
s_2_5 + s_2_11 + 1000 r_2_5_11 >= 2
- s_2_5 - s_2_11 - 1000 r_2_5_11 >= -1001
t_2_5 - t_2_11 - 1000.000000 u_2_5_11 - 0.000000 s_2_11  + 2000.000000 r_2_5_11 > -998.785200
s_1_6 + s_1_1 + 1000 r_1_1_6 >= 2
- s_1_6 - s_1_1 - 1000 r_1_1_6 >= -1001
t_1_6 - t_1_1 + 1000.000000 u_1_1_6 - 0.000000 s_1_1  + 2000.000000 r_1_1_6 > 4.708500
s_2_6 + s_2_1 + 1000 r_2_1_6 >= 2
- s_2_6 - s_2_1 - 1000 r_2_1_6 >= -1001
t_2_6 - t_2_1 + 1000.000000 u_2_1_6 - 0.000000 s_2_1  + 2000.000000 r_2_1_6 > 2.421800
s_1_6 + s_1_2 + 1000 r_1_2_6 >= 2
- s_1_6 - s_1_2 - 1000 r_1_2_6 >= -1001
t_1_6 - t_1_2 + 1000.000000 u_1_2_6 - 0.000000 s_1_2  + 2000.000000 r_1_2_6 > 2.727100
s_2_6 + s_2_2 + 1000 r_2_2_6 >= 2
- s_2_6 - s_2_2 - 1000 r_2_2_6 >= -1001
t_2_6 - t_2_2 + 1000.000000 u_2_2_6 - 0.000000 s_2_2  + 2000.000000 r_2_2_6 > 1.520700
s_1_6 + s_1_3 + 1000 r_1_3_6 >= 2
- s_1_6 - s_1_3 - 1000 r_1_3_6 >= -1001
t_1_6 - t_1_3 + 1000.000000 u_1_3_6 - 0.000000 s_1_3  + 2000.000000 r_1_3_6 > 3.811700
s_2_6 + s_2_3 + 1000 r_2_3_6 >= 2
- s_2_6 - s_2_3 - 1000 r_2_3_6 >= -1001
t_2_6 - t_2_3 + 1000.000000 u_2_3_6 - 0.000000 s_2_3  + 2000.000000 r_2_3_6 > 2.422000
s_1_6 + s_1_4 + 1000 r_1_4_6 >= 2
- s_1_6 - s_1_4 - 1000 r_1_4_6 >= -1001
t_1_6 - t_1_4 + 1000.000000 u_1_4_6 - 0.000000 s_1_4  + 2000.000000 r_1_4_6 > 5.050500
s_2_6 + s_2_4 + 1000 r_2_4_6 >= 2
- s_2_6 - s_2_4 - 1000 r_2_4_6 >= -1001
t_2_6 - t_2_4 + 1000.000000 u_2_4_6 - 0.000000 s_2_4  + 2000.000000 r_2_4_6 > 2.686100
t_1_7 - t_1_6 - 1000.000000 s_1_6  > -996.772000
t_1_7 - t_2_6 - 1000.000000 s_2_6  > -998.283000
t_2_7 - t_1_6 - 1000.000000 s_1_6  > -996.772000
t_2_7 - t_2_6 - 1000.000000 s_2_6  > -998.283000
s_1_6 + s_1_10 + 1000 r_1_6_10 >= 2
- s_1_6 - s_1_10 - 1000 r_1_6_10 >= -1001
t_1_6 - t_1_10 - 1000.000000 u_1_6_10 - 0.000000 s_1_10  + 2000.000000 r_1_6_10 > -999.462400
s_2_6 + s_2_10 + 1000 r_2_6_10 >= 2
- s_2_6 - s_2_10 - 1000 r_2_6_10 >= -1001
t_2_6 - t_2_10 - 1000.000000 u_2_6_10 - 0.000000 s_2_10  + 2000.000000 r_2_6_10 > -998.786000
s_1_6 + s_1_11 + 1000 r_1_6_11 >= 2
- s_1_6 - s_1_11 - 1000 r_1_6_11 >= -1001
t_1_6 - t_1_11 - 1000.000000 u_1_6_11 - 0.000000 s_1_11  + 2000.000000 r_1_6_11 > -997.946000
s_2_6 + s_2_11 + 1000 r_2_6_11 >= 2
- s_2_6 - s_2_11 - 1000 r_2_6_11 >= -1001
t_2_6 - t_2_11 - 1000.000000 u_2_6_11 - 0.000000 s_2_11  + 2000.000000 r_2_6_11 > -998.785200
s_1_7 + s_1_1 + 1000 r_1_1_7 >= 2
- s_1_7 - s_1_1 - 1000 r_1_1_7 >= -1001
t_1_7 - t_1_1 + 1000.000000 u_1_1_7 - 0.000000 s_1_1  + 2000.000000 r_1_1_7 > 4.708500
s_2_7 + s_2_1 + 1000 r_2_1_7 >= 2
- s_2_7 - s_2_1 - 1000 r_2_1_7 >= -1001
t_2_7 - t_2_1 + 1000.000000 u_2_1_7 - 0.000000 s_2_1  + 2000.000000 r_2_1_7 > 2.421800
s_1_7 + s_1_2 + 1000 r_1_2_7 >= 2
- s_1_7 - s_1_2 - 1000 r_1_2_7 >= -1001
t_1_7 - t_1_2 + 1000.000000 u_1_2_7 - 0.000000 s_1_2  + 2000.000000 r_1_2_7 > 2.727100
s_2_7 + s_2_2 + 1000 r_2_2_7 >= 2
- s_2_7 - s_2_2 - 1000 r_2_2_7 >= -1001
t_2_7 - t_2_2 + 1000.000000 u_2_2_7 - 0.000000 s_2_2  + 2000.000000 r_2_2_7 > 1.520700
s_1_7 + s_1_3 + 1000 r_1_3_7 >= 2
- s_1_7 - s_1_3 - 1000 r_1_3_7 >= -1001
t_1_7 - t_1_3 + 1000.000000 u_1_3_7 - 0.000000 s_1_3  + 2000.000000 r_1_3_7 > 3.811700
s_2_7 + s_2_3 + 1000 r_2_3_7 >= 2
- s_2_7 - s_2_3 - 1000 r_2_3_7 >= -1001
t_2_7 - t_2_3 + 1000.000000 u_2_3_7 - 0.000000 s_2_3  + 2000.000000 r_2_3_7 > 2.422000
s_1_7 + s_1_4 + 1000 r_1_4_7 >= 2
- s_1_7 - s_1_4 - 1000 r_1_4_7 >= -1001
t_1_7 - t_1_4 + 1000.000000 u_1_4_7 - 0.000000 s_1_4  + 2000.000000 r_1_4_7 > 5.050500
s_2_7 + s_2_4 + 1000 r_2_4_7 >= 2
- s_2_7 - s_2_4 - 1000 r_2_4_7 >= -1001
t_2_7 - t_2_4 + 1000.000000 u_2_4_7 - 0.000000 s_2_4  + 2000.000000 r_2_4_7 > 2.686100
t_1_8 - t_1_7 - 1000.000000 s_1_7  > -996.224700
t_1_8 - t_2_7 - 1000.000000 s_2_7  > -997.545600
t_2_8 - t_1_7 - 1000.000000 s_1_7  > -996.224700
t_2_8 - t_2_7 - 1000.000000 s_2_7  > -997.545600
s_1_7 + s_1_10 + 1000 r_1_7_10 >= 2
- s_1_7 - s_1_10 - 1000 r_1_7_10 >= -1001
t_1_7 - t_1_10 - 1000.000000 u_1_7_10 - 0.000000 s_1_10  + 2000.000000 r_1_7_10 > -999.462400
s_2_7 + s_2_10 + 1000 r_2_7_10 >= 2
- s_2_7 - s_2_10 - 1000 r_2_7_10 >= -1001
t_2_7 - t_2_10 - 1000.000000 u_2_7_10 - 0.000000 s_2_10  + 2000.000000 r_2_7_10 > -998.786000
s_1_7 + s_1_11 + 1000 r_1_7_11 >= 2
- s_1_7 - s_1_11 - 1000 r_1_7_11 >= -1001
t_1_7 - t_1_11 - 1000.000000 u_1_7_11 - 0.000000 s_1_11  + 2000.000000 r_1_7_11 > -997.946000
s_2_7 + s_2_11 + 1000 r_2_7_11 >= 2
- s_2_7 - s_2_11 - 1000 r_2_7_11 >= -1001
t_2_7 - t_2_11 - 1000.000000 u_2_7_11 - 0.000000 s_2_11  + 2000.000000 r_2_7_11 > -998.785200
s_1_8 + s_1_1 + 1000 r_1_1_8 >= 2
- s_1_8 - s_1_1 - 1000 r_1_1_8 >= -1001
t_1_8 - t_1_1 + 1000.000000 u_1_1_8 - 0.000000 s_1_1  + 2000.000000 r_1_1_8 > 4.708500
s_2_8 + s_2_1 + 1000 r_2_1_8 >= 2
- s_2_8 - s_2_1 - 1000 r_2_1_8 >= -1001
t_2_8 - t_2_1 + 1000.000000 u_2_1_8 - 0.000000 s_2_1  + 2000.000000 r_2_1_8 > 2.421800
s_1_8 + s_1_2 + 1000 r_1_2_8 >= 2
- s_1_8 - s_1_2 - 1000 r_1_2_8 >= -1001
t_1_8 - t_1_2 + 1000.000000 u_1_2_8 - 0.000000 s_1_2  + 2000.000000 r_1_2_8 > 2.727100
s_2_8 + s_2_2 + 1000 r_2_2_8 >= 2
- s_2_8 - s_2_2 - 1000 r_2_2_8 >= -1001
t_2_8 - t_2_2 + 1000.000000 u_2_2_8 - 0.000000 s_2_2  + 2000.000000 r_2_2_8 > 1.520700
s_1_8 + s_1_3 + 1000 r_1_3_8 >= 2
- s_1_8 - s_1_3 - 1000 r_1_3_8 >= -1001
t_1_8 - t_1_3 + 1000.000000 u_1_3_8 - 0.000000 s_1_3  + 2000.000000 r_1_3_8 > 3.811700
s_2_8 + s_2_3 + 1000 r_2_3_8 >= 2
- s_2_8 - s_2_3 - 1000 r_2_3_8 >= -1001
t_2_8 - t_2_3 + 1000.000000 u_2_3_8 - 0.000000 s_2_3  + 2000.000000 r_2_3_8 > 2.422000
s_1_8 + s_1_4 + 1000 r_1_4_8 >= 2
- s_1_8 - s_1_4 - 1000 r_1_4_8 >= -1001
t_1_8 - t_1_4 + 1000.000000 u_1_4_8 - 0.000000 s_1_4  + 2000.000000 r_1_4_8 > 5.050500
s_2_8 + s_2_4 + 1000 r_2_4_8 >= 2
- s_2_8 - s_2_4 - 1000 r_2_4_8 >= -1001
t_2_8 - t_2_4 + 1000.000000 u_2_4_8 - 0.000000 s_2_4  + 2000.000000 r_2_4_8 > 2.686100
t_1_9 - t_1_8 - 1000.000000 s_1_8  > -995.511700
t_1_9 - t_2_8 - 1000.000000 s_2_8  > -997.294900
t_2_9 - t_1_8 - 1000.000000 s_1_8  > -995.511700
t_2_9 - t_2_8 - 1000.000000 s_2_8  > -997.294900
s_1_8 + s_1_10 + 1000 r_1_8_10 >= 2
- s_1_8 - s_1_10 - 1000 r_1_8_10 >= -1001
t_1_8 - t_1_10 - 1000.000000 u_1_8_10 - 0.000000 s_1_10  + 2000.000000 r_1_8_10 > -999.462400
s_2_8 + s_2_10 + 1000 r_2_8_10 >= 2
- s_2_8 - s_2_10 - 1000 r_2_8_10 >= -1001
t_2_8 - t_2_10 - 1000.000000 u_2_8_10 - 0.000000 s_2_10  + 2000.000000 r_2_8_10 > -998.786000
s_1_8 + s_1_11 + 1000 r_1_8_11 >= 2
- s_1_8 - s_1_11 - 1000 r_1_8_11 >= -1001
t_1_8 - t_1_11 - 1000.000000 u_1_8_11 - 0.000000 s_1_11  + 2000.000000 r_1_8_11 > -997.946000
s_2_8 + s_2_11 + 1000 r_2_8_11 >= 2
- s_2_8 - s_2_11 - 1000 r_2_8_11 >= -1001
t_2_8 - t_2_11 - 1000.000000 u_2_8_11 - 0.000000 s_2_11  + 2000.000000 r_2_8_11 > -998.785200
s_1_9 + s_1_1 + 1000 r_1_1_9 >= 2
- s_1_9 - s_1_1 - 1000 r_1_1_9 >= -1001
t_1_9 - t_1_1 + 1000.000000 u_1_1_9 - 0.000000 s_1_1  + 2000.000000 r_1_1_9 > 4.708500
s_2_9 + s_2_1 + 1000 r_2_1_9 >= 2
- s_2_9 - s_2_1 - 1000 r_2_1_9 >= -1001
t_2_9 - t_2_1 + 1000.000000 u_2_1_9 - 0.000000 s_2_1  + 2000.000000 r_2_1_9 > 2.421800
s_1_9 + s_1_2 + 1000 r_1_2_9 >= 2
- s_1_9 - s_1_2 - 1000 r_1_2_9 >= -1001
t_1_9 - t_1_2 + 1000.000000 u_1_2_9 - 0.000000 s_1_2  + 2000.000000 r_1_2_9 > 2.727100
s_2_9 + s_2_2 + 1000 r_2_2_9 >= 2
- s_2_9 - s_2_2 - 1000 r_2_2_9 >= -1001
t_2_9 - t_2_2 + 1000.000000 u_2_2_9 - 0.000000 s_2_2  + 2000.000000 r_2_2_9 > 1.520700
s_1_9 + s_1_3 + 1000 r_1_3_9 >= 2
- s_1_9 - s_1_3 - 1000 r_1_3_9 >= -1001
t_1_9 - t_1_3 + 1000.000000 u_1_3_9 - 0.000000 s_1_3  + 2000.000000 r_1_3_9 > 3.811700
s_2_9 + s_2_3 + 1000 r_2_3_9 >= 2
- s_2_9 - s_2_3 - 1000 r_2_3_9 >= -1001
t_2_9 - t_2_3 + 1000.000000 u_2_3_9 - 0.000000 s_2_3  + 2000.000000 r_2_3_9 > 2.422000
s_1_9 + s_1_4 + 1000 r_1_4_9 >= 2
- s_1_9 - s_1_4 - 1000 r_1_4_9 >= -1001
t_1_9 - t_1_4 + 1000.000000 u_1_4_9 - 0.000000 s_1_4  + 2000.000000 r_1_4_9 > 5.050500
s_2_9 + s_2_4 + 1000 r_2_4_9 >= 2
- s_2_9 - s_2_4 - 1000 r_2_4_9 >= -1001
t_2_9 - t_2_4 + 1000.000000 u_2_4_9 - 0.000000 s_2_4  + 2000.000000 r_2_4_9 > 2.686100
s_1_9 + s_1_10 + 1000 r_1_9_10 >= 2
- s_1_9 - s_1_10 - 1000 r_1_9_10 >= -1001
t_1_9 - t_1_10 - 1000.000000 u_1_9_10 - 0.000000 s_1_10  + 2000.000000 r_1_9_10 > -999.462400
s_2_9 + s_2_10 + 1000 r_2_9_10 >= 2
- s_2_9 - s_2_10 - 1000 r_2_9_10 >= -1001
t_2_9 - t_2_10 - 1000.000000 u_2_9_10 - 0.000000 s_2_10  + 2000.000000 r_2_9_10 > -998.786000
s_1_9 + s_1_11 + 1000 r_1_9_11 >= 2
- s_1_9 - s_1_11 - 1000 r_1_9_11 >= -1001
t_1_9 - t_1_11 - 1000.000000 u_1_9_11 - 0.000000 s_1_11  + 2000.000000 r_1_9_11 > -997.946000
s_2_9 + s_2_11 + 1000 r_2_9_11 >= 2
- s_2_9 - s_2_11 - 1000 r_2_9_11 >= -1001
t_2_9 - t_2_11 - 1000.000000 u_2_9_11 - 0.000000 s_2_11  + 2000.000000 r_2_9_11 > -998.785200
t_1_12 - t_1_9 - 1000.000000 s_1_9  > -994.970500
t_1_12 - t_2_9 - 1000.000000 s_2_9  > -997.239400
t_2_12 - t_1_9 - 1000.000000 s_1_9  > -994.970500
t_2_12 - t_2_9 - 1000.000000 s_2_9  > -997.239400
s_1_10 + s_1_1 + 1000 r_1_1_10 >= 2
- s_1_10 - s_1_1 - 1000 r_1_1_10 >= -1001
t_1_10 - t_1_1 + 1000.000000 u_1_1_10 - 0.000000 s_1_1  + 2000.000000 r_1_1_10 > 4.708500
s_2_10 + s_2_1 + 1000 r_2_1_10 >= 2
- s_2_10 - s_2_1 - 1000 r_2_1_10 >= -1001
t_2_10 - t_2_1 + 1000.000000 u_2_1_10 - 0.000000 s_2_1  + 2000.000000 r_2_1_10 > 2.421800
s_1_10 + s_1_2 + 1000 r_1_2_10 >= 2
- s_1_10 - s_1_2 - 1000 r_1_2_10 >= -1001
t_1_10 - t_1_2 + 1000.000000 u_1_2_10 - 0.000000 s_1_2  + 2000.000000 r_1_2_10 > 2.727100
s_2_10 + s_2_2 + 1000 r_2_2_10 >= 2
- s_2_10 - s_2_2 - 1000 r_2_2_10 >= -1001
t_2_10 - t_2_2 + 1000.000000 u_2_2_10 - 0.000000 s_2_2  + 2000.000000 r_2_2_10 > 1.520700
s_1_10 + s_1_3 + 1000 r_1_3_10 >= 2
- s_1_10 - s_1_3 - 1000 r_1_3_10 >= -1001
t_1_10 - t_1_3 + 1000.000000 u_1_3_10 - 0.000000 s_1_3  + 2000.000000 r_1_3_10 > 3.811700
s_2_10 + s_2_3 + 1000 r_2_3_10 >= 2
- s_2_10 - s_2_3 - 1000 r_2_3_10 >= -1001
t_2_10 - t_2_3 + 1000.000000 u_2_3_10 - 0.000000 s_2_3  + 2000.000000 r_2_3_10 > 2.422000
s_1_10 + s_1_4 + 1000 r_1_4_10 >= 2
- s_1_10 - s_1_4 - 1000 r_1_4_10 >= -1001
t_1_10 - t_1_4 + 1000.000000 u_1_4_10 - 0.000000 s_1_4  + 2000.000000 r_1_4_10 > 5.050500
s_2_10 + s_2_4 + 1000 r_2_4_10 >= 2
- s_2_10 - s_2_4 - 1000 r_2_4_10 >= -1001
t_2_10 - t_2_4 + 1000.000000 u_2_4_10 - 0.000000 s_2_4  + 2000.000000 r_2_4_10 > 2.686100
s_1_10 + s_1_5 + 1000 r_1_5_10 >= 2
- s_1_10 - s_1_5 - 1000 r_1_5_10 >= -1001
t_1_10 - t_1_5 + 1000.000000 u_1_5_10 - 0.000000 s_1_5  + 2000.000000 r_1_5_10 > 2.765000
s_2_10 + s_2_5 + 1000 r_2_5_10 >= 2
- s_2_10 - s_2_5 - 1000 r_2_5_10 >= -1001
t_2_10 - t_2_5 + 1000.000000 u_2_5_10 - 0.000000 s_2_5  + 2000.000000 r_2_5_10 > 1.493600
s_1_10 + s_1_6 + 1000 r_1_6_10 >= 2
- s_1_10 - s_1_6 - 1000 r_1_6_10 >= -1001
t_1_10 - t_1_6 + 1000.000000 u_1_6_10 - 0.000000 s_1_6  + 2000.000000 r_1_6_10 > 3.228000
s_2_10 + s_2_6 + 1000 r_2_6_10 >= 2
- s_2_10 - s_2_6 - 1000 r_2_6_10 >= -1001
t_2_10 - t_2_6 + 1000.000000 u_2_6_10 - 0.000000 s_2_6  + 2000.000000 r_2_6_10 > 1.717000
s_1_10 + s_1_7 + 1000 r_1_7_10 >= 2
- s_1_10 - s_1_7 - 1000 r_1_7_10 >= -1001
t_1_10 - t_1_7 + 1000.000000 u_1_7_10 - 0.000000 s_1_7  + 2000.000000 r_1_7_10 > 3.775300
s_2_10 + s_2_7 + 1000 r_2_7_10 >= 2
- s_2_10 - s_2_7 - 1000 r_2_7_10 >= -1001
t_2_10 - t_2_7 + 1000.000000 u_2_7_10 - 0.000000 s_2_7  + 2000.000000 r_2_7_10 > 2.454400
s_1_10 + s_1_8 + 1000 r_1_8_10 >= 2
- s_1_10 - s_1_8 - 1000 r_1_8_10 >= -1001
t_1_10 - t_1_8 + 1000.000000 u_1_8_10 - 0.000000 s_1_8  + 2000.000000 r_1_8_10 > 4.488300
s_2_10 + s_2_8 + 1000 r_2_8_10 >= 2
- s_2_10 - s_2_8 - 1000 r_2_8_10 >= -1001
t_2_10 - t_2_8 + 1000.000000 u_2_8_10 - 0.000000 s_2_8  + 2000.000000 r_2_8_10 > 2.705100
s_1_10 + s_1_9 + 1000 r_1_9_10 >= 2
- s_1_10 - s_1_9 - 1000 r_1_9_10 >= -1001
t_1_10 - t_1_9 + 1000.000000 u_1_9_10 - 0.000000 s_1_9  + 2000.000000 r_1_9_10 > 5.029500
s_2_10 + s_2_9 + 1000 r_2_9_10 >= 2
- s_2_10 - s_2_9 - 1000 r_2_9_10 >= -1001
t_2_10 - t_2_9 + 1000.000000 u_2_9_10 - 0.000000 s_2_9  + 2000.000000 r_2_9_10 > 2.760600
t_1_11 - t_1_10 - 1000.000000 s_1_10  > -999.462400
t_1_11 - t_2_10 - 1000.000000 s_2_10  > -998.786000
t_2_11 - t_1_10 - 1000.000000 s_1_10  > -999.462400
t_2_11 - t_2_10 - 1000.000000 s_2_10  > -998.786000
s_1_11 + s_1_1 + 1000 r_1_1_11 >= 2
- s_1_11 - s_1_1 - 1000 r_1_1_11 >= -1001
t_1_11 - t_1_1 + 1000.000000 u_1_1_11 - 0.000000 s_1_1  + 2000.000000 r_1_1_11 > 4.708500
s_2_11 + s_2_1 + 1000 r_2_1_11 >= 2
- s_2_11 - s_2_1 - 1000 r_2_1_11 >= -1001
t_2_11 - t_2_1 + 1000.000000 u_2_1_11 - 0.000000 s_2_1  + 2000.000000 r_2_1_11 > 2.421800
s_1_11 + s_1_2 + 1000 r_1_2_11 >= 2
- s_1_11 - s_1_2 - 1000 r_1_2_11 >= -1001
t_1_11 - t_1_2 + 1000.000000 u_1_2_11 - 0.000000 s_1_2  + 2000.000000 r_1_2_11 > 2.727100
s_2_11 + s_2_2 + 1000 r_2_2_11 >= 2
- s_2_11 - s_2_2 - 1000 r_2_2_11 >= -1001
t_2_11 - t_2_2 + 1000.000000 u_2_2_11 - 0.000000 s_2_2  + 2000.000000 r_2_2_11 > 1.520700
s_1_11 + s_1_3 + 1000 r_1_3_11 >= 2
- s_1_11 - s_1_3 - 1000 r_1_3_11 >= -1001
t_1_11 - t_1_3 + 1000.000000 u_1_3_11 - 0.000000 s_1_3  + 2000.000000 r_1_3_11 > 3.811700
s_2_11 + s_2_3 + 1000 r_2_3_11 >= 2
- s_2_11 - s_2_3 - 1000 r_2_3_11 >= -1001
t_2_11 - t_2_3 + 1000.000000 u_2_3_11 - 0.000000 s_2_3  + 2000.000000 r_2_3_11 > 2.422000
s_1_11 + s_1_4 + 1000 r_1_4_11 >= 2
- s_1_11 - s_1_4 - 1000 r_1_4_11 >= -1001
t_1_11 - t_1_4 + 1000.000000 u_1_4_11 - 0.000000 s_1_4  + 2000.000000 r_1_4_11 > 5.050500
s_2_11 + s_2_4 + 1000 r_2_4_11 >= 2
- s_2_11 - s_2_4 - 1000 r_2_4_11 >= -1001
t_2_11 - t_2_4 + 1000.000000 u_2_4_11 - 0.000000 s_2_4  + 2000.000000 r_2_4_11 > 2.686100
s_1_11 + s_1_5 + 1000 r_1_5_11 >= 2
- s_1_11 - s_1_5 - 1000 r_1_5_11 >= -1001
t_1_11 - t_1_5 + 1000.000000 u_1_5_11 - 0.000000 s_1_5  + 2000.000000 r_1_5_11 > 2.765000
s_2_11 + s_2_5 + 1000 r_2_5_11 >= 2
- s_2_11 - s_2_5 - 1000 r_2_5_11 >= -1001
t_2_11 - t_2_5 + 1000.000000 u_2_5_11 - 0.000000 s_2_5  + 2000.000000 r_2_5_11 > 1.493600
s_1_11 + s_1_6 + 1000 r_1_6_11 >= 2
- s_1_11 - s_1_6 - 1000 r_1_6_11 >= -1001
t_1_11 - t_1_6 + 1000.000000 u_1_6_11 - 0.000000 s_1_6  + 2000.000000 r_1_6_11 > 3.228000
s_2_11 + s_2_6 + 1000 r_2_6_11 >= 2
- s_2_11 - s_2_6 - 1000 r_2_6_11 >= -1001
t_2_11 - t_2_6 + 1000.000000 u_2_6_11 - 0.000000 s_2_6  + 2000.000000 r_2_6_11 > 1.717000
s_1_11 + s_1_7 + 1000 r_1_7_11 >= 2
- s_1_11 - s_1_7 - 1000 r_1_7_11 >= -1001
t_1_11 - t_1_7 + 1000.000000 u_1_7_11 - 0.000000 s_1_7  + 2000.000000 r_1_7_11 > 3.775300
s_2_11 + s_2_7 + 1000 r_2_7_11 >= 2
- s_2_11 - s_2_7 - 1000 r_2_7_11 >= -1001
t_2_11 - t_2_7 + 1000.000000 u_2_7_11 - 0.000000 s_2_7  + 2000.000000 r_2_7_11 > 2.454400
s_1_11 + s_1_8 + 1000 r_1_8_11 >= 2
- s_1_11 - s_1_8 - 1000 r_1_8_11 >= -1001
t_1_11 - t_1_8 + 1000.000000 u_1_8_11 - 0.000000 s_1_8  + 2000.000000 r_1_8_11 > 4.488300
s_2_11 + s_2_8 + 1000 r_2_8_11 >= 2
- s_2_11 - s_2_8 - 1000 r_2_8_11 >= -1001
t_2_11 - t_2_8 + 1000.000000 u_2_8_11 - 0.000000 s_2_8  + 2000.000000 r_2_8_11 > 2.705100
s_1_11 + s_1_9 + 1000 r_1_9_11 >= 2
- s_1_11 - s_1_9 - 1000 r_1_9_11 >= -1001
t_1_11 - t_1_9 + 1000.000000 u_1_9_11 - 0.000000 s_1_9  + 2000.000000 r_1_9_11 > 5.029500
s_2_11 + s_2_9 + 1000 r_2_9_11 >= 2
- s_2_11 - s_2_9 - 1000 r_2_9_11 >= -1001
t_2_11 - t_2_9 + 1000.000000 u_2_9_11 - 0.000000 s_2_9  + 2000.000000 r_2_9_11 > 2.760600
t_1_12 - t_1_11 - 1000.000000 s_1_11  > -997.946000
t_1_12 - t_2_11 - 1000.000000 s_2_11  > -998.785200
t_2_12 - t_1_11 - 1000.000000 s_1_11  > -997.946000
t_2_12 - t_2_11 - 1000.000000 s_2_11  > -998.785200
Binary
s_1_1
s_2_1
s_1_2
s_2_2
s_1_3
s_2_3
s_1_4
s_2_4
s_1_5
s_2_5
s_1_6
s_2_6
s_1_7
s_2_7
s_1_8
s_2_8
s_1_9
s_2_9
s_1_10
s_2_10
s_1_11
s_2_11
s_1_12
s_2_12
u_1_1_2
r_1_1_2
u_2_1_2
r_2_1_2
u_1_1_3
r_1_1_3
u_2_1_3
r_2_1_3
u_1_1_4
r_1_1_4
u_2_1_4
r_2_1_4
u_1_1_5
r_1_1_5
u_2_1_5
r_2_1_5
u_1_1_6
r_1_1_6
u_2_1_6
r_2_1_6
u_1_1_7
r_1_1_7
u_2_1_7
r_2_1_7
u_1_1_8
r_1_1_8
u_2_1_8
r_2_1_8
u_1_1_9
r_1_1_9
u_2_1_9
r_2_1_9
u_1_1_10
r_1_1_10
u_2_1_10
r_2_1_10
u_1_1_11
r_1_1_11
u_2_1_11
r_2_1_11
u_1_2_5
r_1_2_5
u_2_2_5
r_2_2_5
u_1_2_6
r_1_2_6
u_2_2_6
r_2_2_6
u_1_2_7
r_1_2_7
u_2_2_7
r_2_2_7
u_1_2_8
r_1_2_8
u_2_2_8
r_2_2_8
u_1_2_9
r_1_2_9
u_2_2_9
r_2_2_9
u_1_2_10
r_1_2_10
u_2_2_10
r_2_2_10
u_1_2_11
r_1_2_11
u_2_2_11
r_2_2_11
u_1_3_5
r_1_3_5
u_2_3_5
r_2_3_5
u_1_3_6
r_1_3_6
u_2_3_6
r_2_3_6
u_1_3_7
r_1_3_7
u_2_3_7
r_2_3_7
u_1_3_8
r_1_3_8
u_2_3_8
r_2_3_8
u_1_3_9
r_1_3_9
u_2_3_9
r_2_3_9
u_1_3_10
r_1_3_10
u_2_3_10
r_2_3_10
u_1_3_11
r_1_3_11
u_2_3_11
r_2_3_11
u_1_4_5
r_1_4_5
u_2_4_5
r_2_4_5
u_1_4_6
r_1_4_6
u_2_4_6
r_2_4_6
u_1_4_7
r_1_4_7
u_2_4_7
r_2_4_7
u_1_4_8
r_1_4_8
u_2_4_8
r_2_4_8
u_1_4_9
r_1_4_9
u_2_4_9
r_2_4_9
u_1_4_10
r_1_4_10
u_2_4_10
r_2_4_10
u_1_4_11
r_1_4_11
u_2_4_11
r_2_4_11
u_1_5_10
r_1_5_10
u_2_5_10
r_2_5_10
u_1_5_11
r_1_5_11
u_2_5_11
r_2_5_11
u_1_6_10
r_1_6_10
u_2_6_10
r_2_6_10
u_1_6_11
r_1_6_11
u_2_6_11
r_2_6_11
u_1_7_10
r_1_7_10
u_2_7_10
r_2_7_10
u_1_7_11
r_1_7_11
u_2_7_11
r_2_7_11
u_1_8_10
r_1_8_10
u_2_8_10
r_2_8_10
u_1_8_11
r_1_8_11
u_2_8_11
r_2_8_11
u_1_9_10
r_1_9_10
u_2_9_10
r_2_9_10
u_1_9_11
r_1_9_11
u_2_9_11
r_2_9_11

End
